21 1 20 1 21 1 20 1 21 1 16 1 21 1 14 1 
9 0 13 0 21 1 20 1 21 1 20 1 21 1 16 1 21 1 14 1 
9 0 13 0 21 1 20 0 21 1 13 0 20 0 21 1 13 0 16 0 21 1 9 0 14 0 9 0 13 1 14 1 16 1 13 1 11 4
9 0 8 0 9 3 4 0 9 0 11 0 13 4 13 0 14 0 16 4 14 0 13 0 11 5
21 1 20 0 21 1 13 0 20 0 21 1 13 0 16 0 21 1 9 0 14 0 9 0 13 1 14 1 16 1 13 1 11 4
9 0 11 0 13 1 4 1 9 1 13 0 14 0 16 1 4 1 13 1 14 0 13 0 11 3 
21 0 23 0 21 0 20 0 21 0 9 0 14 0 9 0 21 0 23 0 21 0 20 0 21 0 9 0 16 0 9 0 
9 0 11 0 13 0 14 0 16 0 13 0 11 0 9 0 8 3 
21 0 23 0 21 0 20 0 21 0 9 0 14 0 9 0 21 0 23 0 21 0 20 0 21 0 9 0 16 0 9 0 
9 0 11 0 13 0 14 0 16 0 13 0 11 0 9 0 8 3 
21 1 20 1 21 1 20 1 21 1 16 1 21 1 14 1 
9 0 13 0 21 1 20 1 21 1 20 1 21 1 16 1 21 1 14 1 
9 0 13 0 21 1 20 0 21 1 13 0 20 0 21 1 13 0 16 0 21 1 9 0 14 0 9 0 13 1 14 1 16 1 13 1 11 4
9 0 8 0 9 3 4 0 9 0 11 0 13 4 13 0 14 0 16 4 14 0 13 0 11 5
21 1 20 0 21 1 13 0 20 0 21 1 13 0 16 0 21 1 9 0 14 0 9 0 13 1 14 1 16 1 13 1 11 4
9 0 11 0 13 1 4 1 9 1 13 0 14 0 16 1 4 1 13 1 14 0 13 0 11 3 
21 0 23 0 21 0 20 0 21 0 9 0 14 0 9 0 21 0 23 0 21 0 20 0 21 0 9 0 16 0 9 0 
9 0 11 0 13 0 14 0 16 0 13 0 11 0 9 0 8 3 
21 0 23 0 21 0 20 0 21 0 9 0 14 0 9 0 21 0 23 0 21 0 20 0 21 0 9 0 16 0 9 0 
9 0 11 0 13 0 14 0 16 0 13 0 11 0 9 0 8 3 